Automatically generated mesh
      201
Reciprocal lattice
    0.00000000000000    0.00000000000000    0.00000000000000             1
    0.11111111111111   -0.00000000000000    0.00000000000000             1
   -0.11111111111111    0.00000000000000    0.00000000000000             1
    0.00000000000000    0.11111111111111    0.00000000000000             1
    0.00000000000000   -0.11111111111111    0.00000000000000             1
   -0.11111111111111    0.11111111111111    0.00000000000000             1
    0.11111111111111   -0.11111111111111    0.00000000000000             1
    0.22222222222222    0.00000000000000    0.00000000000000             1
   -0.22222222222222   -0.00000000000000    0.00000000000000             1
    0.00000000000000    0.22222222222222    0.00000000000000             1
    0.00000000000000   -0.22222222222222    0.00000000000000             1
   -0.22222222222222    0.22222222222222    0.00000000000000             1
    0.22222222222222   -0.22222222222222    0.00000000000000             1
    0.33333333333334   -0.00000000000000    0.00000000000000             1
   -0.33333333333334    0.00000000000000    0.00000000000000             1
    0.00000000000000    0.33333333333334    0.00000000000000             1
    0.00000000000000   -0.33333333333334    0.00000000000000             1
   -0.33333333333334    0.33333333333334    0.00000000000000             1
    0.33333333333334   -0.33333333333334    0.00000000000000             1
    0.44444444444444    0.00000000000000    0.00000000000000             1
   -0.44444444444444   -0.00000000000000    0.00000000000000             1
    0.00000000000000    0.44444444444444    0.00000000000000             1
    0.00000000000000   -0.44444444444444    0.00000000000000             1
   -0.44444444444444    0.44444444444444    0.00000000000000             1
    0.44444444444444   -0.44444444444444    0.00000000000000             1
    0.11111111111111    0.11111111111111    0.00000000000000             1
   -0.11111111111111   -0.11111111111111    0.00000000000000             1
   -0.11111111111111    0.22222222222223    0.00000000000000             1
    0.11111111111111   -0.22222222222223    0.00000000000000             1
   -0.22222222222223    0.11111111111111    0.00000000000000             1
    0.22222222222223   -0.11111111111111    0.00000000000000             1
    0.22222222222222    0.11111111111111    0.00000000000000             1
   -0.22222222222222   -0.11111111111111    0.00000000000000             1
   -0.11111111111111    0.33333333333334    0.00000000000000             1
    0.11111111111111   -0.33333333333334    0.00000000000000             1
   -0.33333333333334    0.22222222222222    0.00000000000000             1
    0.33333333333334   -0.22222222222222    0.00000000000000             1
   -0.22222222222222    0.33333333333334    0.00000000000000             1
    0.22222222222222   -0.33333333333334    0.00000000000000             1
    0.11111111111111    0.22222222222222    0.00000000000000             1
   -0.11111111111111   -0.22222222222222    0.00000000000000             1
    0.33333333333334   -0.11111111111111    0.00000000000000             1
   -0.33333333333334    0.11111111111111    0.00000000000000             1
    0.33333333333334    0.11111111111111    0.00000000000000             1
   -0.33333333333334   -0.11111111111111    0.00000000000000             1
   -0.11111111111111    0.44444444444445    0.00000000000000             1
    0.11111111111111   -0.44444444444445    0.00000000000000             1
   -0.44444444444445    0.33333333333334    0.00000000000000             1
    0.44444444444445   -0.33333333333334    0.00000000000000             1
   -0.33333333333334    0.44444444444445    0.00000000000000             1
    0.33333333333334   -0.44444444444445    0.00000000000000             1
    0.11111111111111    0.33333333333334    0.00000000000000             1
   -0.11111111111111   -0.33333333333334    0.00000000000000             1
    0.44444444444445   -0.11111111111111    0.00000000000000             1
   -0.44444444444445    0.11111111111111    0.00000000000000             1
    0.44444444444444    0.11111111111111    0.00000000000000             1
   -0.44444444444444   -0.11111111111111    0.00000000000000             1
   -0.11111111111111   -0.44444444444444    0.00000000000000             1
    0.11111111111111    0.44444444444444    0.00000000000000             1
    0.44444444444444    0.44444444444444    0.00000000000000             1
   -0.44444444444444   -0.44444444444444    0.00000000000000             1
    0.22222222222222    0.22222222222222    0.00000000000000             1
   -0.22222222222222   -0.22222222222222    0.00000000000000             1
   -0.22222222222222    0.44444444444444    0.00000000000000             1
    0.22222222222222   -0.44444444444444    0.00000000000000             1
   -0.44444444444444    0.22222222222222    0.00000000000000             1
    0.44444444444444   -0.22222222222222    0.00000000000000             1
    0.33333333333334    0.22222222222222    0.00000000000000             1
   -0.33333333333334   -0.22222222222222    0.00000000000000             1
   -0.22222222222222   -0.44444444444444    0.00000000000000             1
    0.22222222222222    0.44444444444444    0.00000000000000             1
    0.44444444444444    0.33333333333334    0.00000000000000             1
   -0.44444444444444   -0.33333333333334    0.00000000000000             1
   -0.33333333333334   -0.44444444444444    0.00000000000000             1
    0.33333333333334    0.44444444444444    0.00000000000000             1
    0.22222222222222    0.33333333333334    0.00000000000000             1
   -0.22222222222222   -0.33333333333334    0.00000000000000             1
   -0.44444444444444   -0.22222222222222    0.00000000000000             1
    0.44444444444444    0.22222222222222    0.00000000000000             1
    0.33333333333334    0.33333333333334    0.00000000000000             1
   -0.33333333333334   -0.33333333333334    0.00000000000000             1
  0.000000   0.000000   0.000000      0
  0.008547   0.008547   0.000000      0
  0.017094   0.017094   0.000000      0
  0.025641   0.025641   0.000000      0
  0.034188   0.034188   0.000000      0
  0.042735   0.042735   0.000000      0
  0.051282   0.051282   0.000000      0
  0.059829   0.059829   0.000000      0
  0.068376   0.068376   0.000000      0
  0.076923   0.076923   0.000000      0
  0.085470   0.085470   0.000000      0
  0.094017   0.094017   0.000000      0
  0.102564   0.102564   0.000000      0
  0.111111   0.111111   0.000000      0
  0.119658   0.119658   0.000000      0
  0.128205   0.128205   0.000000      0
  0.136752   0.136752   0.000000      0
  0.145299   0.145299   0.000000      0
  0.153846   0.153846   0.000000      0
  0.162393   0.162393   0.000000      0
  0.170940   0.170940   0.000000      0
  0.179487   0.179487   0.000000      0
  0.188034   0.188034   0.000000      0
  0.196581   0.196581   0.000000      0
  0.205128   0.205128   0.000000      0
  0.213675   0.213675   0.000000      0
  0.222222   0.222222   0.000000      0
  0.230769   0.230769   0.000000      0
  0.239316   0.239316   0.000000      0
  0.247863   0.247863   0.000000      0
  0.256410   0.256410   0.000000      0
  0.264957   0.264957   0.000000      0
  0.273504   0.273504   0.000000      0
  0.282051   0.282051   0.000000      0
  0.290598   0.290598   0.000000      0
  0.299145   0.299145   0.000000      0
  0.307692   0.307692   0.000000      0
  0.316239   0.316239   0.000000      0
  0.324786   0.324786   0.000000      0
  0.333333   0.333333   0.000000      0
  0.333333   0.333333   0.000000      0
  0.316239   0.341880   0.000000      0
  0.299145   0.350427   0.000000      0
  0.282051   0.358974   0.000000      0
  0.264957   0.367521   0.000000      0
  0.247863   0.376068   0.000000      0
  0.230769   0.384615   0.000000      0
  0.213675   0.393162   0.000000      0
  0.196581   0.401709   0.000000      0
  0.179487   0.410256   0.000000      0
  0.162393   0.418803   0.000000      0
  0.145299   0.427350   0.000000      0
  0.128205   0.435897   0.000000      0
  0.111111   0.444444   0.000000      0
  0.094017   0.452991   0.000000      0
  0.076923   0.461538   0.000000      0
  0.059829   0.470085   0.000000      0
  0.042735   0.478632   0.000000      0
  0.025641   0.487179   0.000000      0
  0.008547   0.495726   0.000000      0
 -0.008547   0.504274   0.000000      0
 -0.025641   0.512821   0.000000      0
 -0.042735   0.521368   0.000000      0
 -0.059829   0.529915   0.000000      0
 -0.076923   0.538462   0.000000      0
 -0.094017   0.547009   0.000000      0
 -0.111111   0.555556   0.000000      0
 -0.128205   0.564103   0.000000      0
 -0.145299   0.572650   0.000000      0
 -0.162393   0.581197   0.000000      0
 -0.179487   0.589744   0.000000      0
 -0.196581   0.598291   0.000000      0
 -0.213675   0.606838   0.000000      0
 -0.230769   0.615385   0.000000      0
 -0.247863   0.623932   0.000000      0
 -0.264957   0.632479   0.000000      0
 -0.282051   0.641026   0.000000      0
 -0.299145   0.649573   0.000000      0
 -0.316239   0.658120   0.000000      0
 -0.333333   0.666667   0.000000      0
 -0.333333   0.666667   0.000000      0
 -0.324786   0.649573   0.000000      0
 -0.316239   0.632479   0.000000      0
 -0.307692   0.615385   0.000000      0
 -0.299145   0.598291   0.000000      0
 -0.290598   0.581197   0.000000      0
 -0.282051   0.564103   0.000000      0
 -0.273504   0.547009   0.000000      0
 -0.264957   0.529915   0.000000      0
 -0.256410   0.512821   0.000000      0
 -0.247863   0.495726   0.000000      0
 -0.239316   0.478632   0.000000      0
 -0.230769   0.461538   0.000000      0
 -0.222222   0.444444   0.000000      0
 -0.213675   0.427350   0.000000      0
 -0.205128   0.410256   0.000000      0
 -0.196581   0.393162   0.000000      0
 -0.188034   0.376068   0.000000      0
 -0.179487   0.358974   0.000000      0
 -0.170940   0.341880   0.000000      0
 -0.162393   0.324786   0.000000      0
 -0.153846   0.307692   0.000000      0
 -0.145299   0.290598   0.000000      0
 -0.136752   0.273504   0.000000      0
 -0.128205   0.256410   0.000000      0
 -0.119658   0.239316   0.000000      0
 -0.111111   0.222222   0.000000      0
 -0.102564   0.205128   0.000000      0
 -0.094017   0.188034   0.000000      0
 -0.085470   0.170940   0.000000      0
 -0.076923   0.153846   0.000000      0
 -0.068376   0.136752   0.000000      0
 -0.059829   0.119658   0.000000      0
 -0.051282   0.102564   0.000000      0
 -0.042735   0.085470   0.000000      0
 -0.034188   0.068376   0.000000      0
 -0.025641   0.051282   0.000000      0
 -0.017094   0.034188   0.000000      0
 -0.008547   0.017094   0.000000      0
  0.000000   0.000000   0.000000      0
