Mo Se                                   
   1.00000000000000     
     9.9599999999999991    5.7504086811286745    0.0000000000000000
    -4.9799999999999995    8.6256130216930114    0.0000000000000000
     0.0000000000000000    0.0000000000000000   15.0000000000000000
   Mo   Se
    12    24
Direct
  0.0791021381296167  0.1649423343235984  0.5013718176584060
  0.3355935429565055  0.0006685635625236  0.4984430658033445
  0.5846773118958856  0.8335550430045476  0.4968081569156226
  0.3300121924691228  0.6656789707111103  0.5015275253773437
  0.8324741863332780  0.3340641649431188  0.5022905554721757
  0.5867475685557071  0.1624864716742428  0.4970164011562775
  0.3348055888867063  0.3296730568178772  0.5001392216353679
  0.8328160207214749  0.6705214704978922  0.5018342707374503
  0.0838223575938057  0.5009803865892162  0.5011326001000752
  0.8345156800555942  0.9993531498574310  0.5019948748964171
  0.0856087350323065  0.8326538064199575  0.4996359983206846
  0.5822108899184020  0.5012973074061720  0.4968354851190305
  0.9100284687991128  0.1632655097831310  0.3934088621685990
  0.9151268223958846  0.1659971026349873  0.6151499933833310
  0.9124070727270667  0.5038016843876969  0.6114622768903818
  0.6654616084759745  0.6699161213741324  0.3849225736589617
  0.6633120509427403  0.6676236674466324  0.6079746742060521
  0.9175644452582152  0.4992414334294726  0.3931230666249945
  0.6712616970886712  0.3371135089671330  0.3853735028675758
  0.6651162861935354  0.3273377439949008  0.6111833832481270
  0.4141821222657712  0.8321026957163116  0.3885372482915487
  0.6657191500940124  0.0060230277809280  0.6118512325628629
  0.9178179926415473  0.8361188611355517  0.6116711343873894
  0.4203742218423426  0.8330783970543765  0.6081221081732766
  0.4149442061617034  0.4979965561376833  0.3884527417124505
  0.4145637873118055  0.5029524199081437  0.6082632007379820
  0.4194453238321099  0.1651162935130276  0.3856919323140419
  0.4219122462408307  0.1649204355518794  0.6099313850819156
  0.1654836218147204  0.6647337153673621  0.3895946017240626
  0.1686193802173834  0.6657109510257992  0.6160336059384713
  0.1636637916993383  0.3325358452266816  0.3934647027942202
  0.1691997808442529  0.3349664892897083  0.6154691387084907
  0.1654439411593682  0.9977540166871184  0.3861386383283632
  0.1701276004088002  0.0019212439621603  0.6089843078020059
  0.6691857757931385  0.0026045342545640  0.3872231348804314
  0.9161392720812614  0.8321801712043490  0.3891511728424951
 
  0.11809378E-02 -0.53231302E-03  0.32215109E-03
  0.22038230E-03  0.12231200E-02 -0.10817797E-02
 -0.11558818E-02  0.70014586E-03  0.48050086E-04
 -0.17345569E-04 -0.85807445E-03 -0.18440669E-02
  0.11074476E-02  0.41294170E-03  0.78306366E-03
 -0.11051574E-02  0.12256472E-02  0.47375939E-04
 -0.44057688E-03  0.67264960E-03 -0.63777634E-03
 -0.50831042E-03 -0.38235740E-03  0.34987603E-03
  0.76199462E-03  0.16008837E-03  0.28151403E-04
 -0.35202263E-03 -0.23506222E-03 -0.59704733E-03
 -0.34541326E-03 -0.12653875E-02  0.62259850E-03
 -0.13175115E-02  0.12950470E-02 -0.39461815E-03
 -0.80200186E-04  0.56747181E-03  0.11342816E-02
  0.33736456E-03 -0.17544195E-02 -0.50296198E-03
 -0.80817592E-03  0.52116397E-03  0.16632565E-02
 -0.36922188E-03  0.15451700E-02  0.84115774E-03
  0.11522181E-02  0.26149037E-04  0.63053265E-03
  0.40536237E-03 -0.14083083E-02  0.13506999E-02
 -0.52681078E-03  0.14128804E-02 -0.13473113E-02
 -0.20385711E-02  0.47086364E-03  0.17259871E-02
 -0.17843488E-02 -0.27031793E-03  0.11636939E-03
  0.17318340E-02 -0.71602672E-03 -0.81213666E-03
 -0.56765145E-03 -0.14064602E-02  0.10471562E-02
  0.22858903E-02  0.43415824E-03  0.45209825E-03
  0.13928223E-03 -0.10756473E-02  0.43077931E-03
  0.18349077E-03  0.49719389E-04 -0.21592511E-02
 -0.99072038E-05 -0.93186377E-03 -0.81239113E-03
  0.11897833E-02  0.56308116E-03 -0.17213793E-02
 -0.24951187E-03  0.11140544E-03  0.45261403E-03
  0.11167803E-02  0.14698952E-03  0.10413199E-02
 -0.44202226E-03  0.38682390E-03 -0.13798384E-02
  0.65694295E-03  0.33441977E-03  0.96128562E-03
 -0.52339955E-03 -0.71726509E-03  0.52931738E-03
  0.80493969E-03 -0.19500980E-02  0.16523426E-02
 -0.11838407E-02  0.14065575E-02 -0.26526888E-03
  0.97518350E-03 -0.68253780E-03 -0.21684156E-02
 
           1
   1.00000000000000     
  0.10000000E+01  0.00000000E+00  0.00000000E+00  0.00000000E+00
  0.79167922E-01  0.16483677E+00  0.50139329E+00
  0.33566331E+00  0.76385089E-03  0.49837095E+00
  0.58462071E+00  0.83367395E+00  0.49681136E+00
  0.32997358E+00  0.66560523E+00  0.50140459E+00
  0.83257553E+00  0.33404448E+00  0.50234276E+00
  0.58671763E+00  0.16264852E+00  0.49701956E+00
  0.33480166E+00  0.32975366E+00  0.50009670E+00
  0.83276112E+00  0.67051374E+00  0.50185760E+00
  0.83886697E-01  0.50095605E+00  0.50113448E+00
  0.83447895E+00  0.99935038E+00  0.50195507E+00
  0.85527712E-01  0.83256112E+00  0.49967750E+00
  0.58216798E+00  0.50147605E+00  0.49680918E+00
  0.91004710E+00  0.16331888E+00  0.39348448E+00
  0.91507595E+00  0.16582762E+00  0.61511646E+00
  0.91236887E+00  0.50388757E+00  0.61157316E+00
  0.66550098E+00  0.67006901E+00  0.38497865E+00
  0.66339995E+00  0.66756810E+00  0.60801671E+00
  0.91753374E+00  0.49909863E+00  0.39321311E+00
  0.67128345E+00  0.33726281E+00  0.38528368E+00
  0.66498325E+00  0.32748102E+00  0.61129845E+00
  0.41403601E+00  0.83216877E+00  0.38854501E+00
  0.66581843E+00  0.58738296E-02  0.61179709E+00
  0.91771410E+00  0.83602507E+00  0.61174094E+00
  0.42056523E+00  0.83300139E+00  0.60815225E+00
  0.41490793E+00  0.49789604E+00  0.38848146E+00
  0.41457977E+00  0.50294753E+00  0.60811925E+00
  0.41940406E+00  0.16503576E+00  0.38563777E+00
  0.42202632E+00  0.16490967E+00  0.60981663E+00
  0.16546968E+00  0.66475593E+00  0.38962478E+00
  0.16870987E+00  0.66566767E+00  0.61610303E+00
  0.16364732E+00  0.33259167E+00  0.39337271E+00
  0.16926379E+00  0.33496259E+00  0.61553322E+00
  0.16537335E+00  0.99771793E+00  0.38617393E+00
  0.17010343E+00  0.17112737E-02  0.60909446E+00
  0.66915778E+00  0.27862647E-02  0.38720545E+00
  0.91618303E+00  0.83207187E+00  0.38900661E+00
  0.62961103E-04 -0.10665111E-03  0.20804261E-04
  0.70409201E-04  0.95196785E-04 -0.71379511E-04
 -0.56917753E-04  0.11680654E-03  0.24619527E-05
 -0.40278537E-04 -0.74678908E-04 -0.12052332E-03
  0.10099764E-03 -0.18295547E-04  0.52104414E-04
 -0.28516923E-04  0.15615639E-03  0.32564381E-05
 -0.41337584E-05  0.79313498E-04 -0.42524034E-04
 -0.53963198E-04 -0.59534368E-05  0.25500341E-04
  0.63780546E-04 -0.24553572E-04 -0.13667916E-05
 -0.34565410E-04 -0.26118171E-05 -0.39989447E-04
 -0.80582232E-04 -0.92085286E-04  0.40202356E-04
 -0.44740094E-04  0.18009234E-03 -0.27294813E-04
  0.15757631E-04  0.50739462E-04  0.78073440E-04
 -0.50983209E-04 -0.17013577E-03 -0.32772804E-04
 -0.40013659E-04  0.86671073E-04  0.10994449E-03
  0.38206914E-04  0.15440034E-03  0.54795971E-04
  0.87728264E-04 -0.55407285E-04  0.40749662E-04
 -0.29635852E-04 -0.14425777E-03  0.91539246E-04
  0.23419597E-04  0.15090091E-03 -0.91683285E-04
 -0.13185797E-03  0.13961541E-03  0.11632297E-03
 -0.14637932E-03  0.66768123E-04  0.80688490E-05
  0.98892499E-04 -0.14424009E-03 -0.53468072E-04
 -0.10462138E-03 -0.92396850E-04  0.69054880E-04
  0.19266165E-03 -0.77663989E-04  0.29150692E-04
 -0.35074781E-04 -0.10114856E-03  0.28762025E-04
  0.14217803E-04 -0.17476096E-05 -0.14547606E-03
 -0.40226440E-04 -0.80962482E-04 -0.55000161E-04
  0.11540579E-03 -0.10416125E-04 -0.11458362E-03
 -0.13832589E-04  0.22004546E-04  0.30719730E-04
  0.92433162E-04 -0.44347642E-04  0.71367082E-04
 -0.16957630E-04  0.57026569E-04 -0.90247117E-04
  0.65571781E-04 -0.18887056E-05  0.66742137E-04
 -0.70475304E-04 -0.38130186E-04  0.33443061E-04
 -0.23232788E-04 -0.20878630E-03  0.10937831E-03
 -0.28684124E-04  0.18491273E-03 -0.17057229E-04
  0.43024578E-04 -0.10934769E-03 -0.14493795E-03
  0.00000000E+00  0.00000000E+00  0.00000000E+00
  0.00000000E+00  0.00000000E+00  0.00000000E+00
  0.00000000E+00  0.00000000E+00  0.00000000E+00
  0.00000000E+00  0.00000000E+00  0.00000000E+00
  0.00000000E+00  0.00000000E+00  0.00000000E+00
  0.00000000E+00  0.00000000E+00  0.00000000E+00
  0.00000000E+00  0.00000000E+00  0.00000000E+00
  0.00000000E+00  0.00000000E+00  0.00000000E+00
  0.00000000E+00  0.00000000E+00  0.00000000E+00
  0.00000000E+00  0.00000000E+00  0.00000000E+00
  0.00000000E+00  0.00000000E+00  0.00000000E+00
  0.00000000E+00  0.00000000E+00  0.00000000E+00
  0.00000000E+00  0.00000000E+00  0.00000000E+00
  0.00000000E+00  0.00000000E+00  0.00000000E+00
  0.00000000E+00  0.00000000E+00  0.00000000E+00
  0.00000000E+00  0.00000000E+00  0.00000000E+00
  0.00000000E+00  0.00000000E+00  0.00000000E+00
  0.00000000E+00  0.00000000E+00  0.00000000E+00
  0.00000000E+00  0.00000000E+00  0.00000000E+00
  0.00000000E+00  0.00000000E+00  0.00000000E+00
  0.00000000E+00  0.00000000E+00  0.00000000E+00
  0.00000000E+00  0.00000000E+00  0.00000000E+00
  0.00000000E+00  0.00000000E+00  0.00000000E+00
  0.00000000E+00  0.00000000E+00  0.00000000E+00
  0.00000000E+00  0.00000000E+00  0.00000000E+00
  0.00000000E+00  0.00000000E+00  0.00000000E+00
  0.00000000E+00  0.00000000E+00  0.00000000E+00
  0.00000000E+00  0.00000000E+00  0.00000000E+00
  0.00000000E+00  0.00000000E+00  0.00000000E+00
  0.00000000E+00  0.00000000E+00  0.00000000E+00
  0.00000000E+00  0.00000000E+00  0.00000000E+00
  0.00000000E+00  0.00000000E+00  0.00000000E+00
  0.00000000E+00  0.00000000E+00  0.00000000E+00
  0.00000000E+00  0.00000000E+00  0.00000000E+00
  0.00000000E+00  0.00000000E+00  0.00000000E+00
  0.00000000E+00  0.00000000E+00  0.00000000E+00
