Mo Se                                   
   1.00000000000000     
     9.9599999999999991    5.7504086811286799    0.0000000000000000
    -4.9799999999999995    8.6256130216930202    0.0000000000000000
     0.0000000000000000    0.0000000000000000   15.0000000000000000
   Mo   Se
    12    24
Direct
  0.9145010670143551  0.8333315584765115  0.5004543659250149
  0.6644929145378119  0.6666683915404398  0.5004543453399316
  0.9145010609289940  0.1666684344757550  0.5004543657370126
  0.9145046671031739  0.4999999804045188  0.5004548718645940
  0.1644929289405981  0.6666684227667573  0.5004543454552488
  0.1644929247804528  0.3333315332496516  0.5004543446852253
  0.1644965709722685  0.0000000229631327  0.5004548568582923
  0.6644928823298126  0.3333315696741890  0.5004543474286632
  0.6644965741731726  0.0000000194770379  0.5004548550551714
  0.4145010374085630  0.1666684834227579  0.5004543672306675
  0.4145046848533159  0.4999999560025116  0.5004548738233139
  0.4145010561436668  0.8333315362769733  0.5004543652201970
  0.7472399195808679  0.5000000157701220  0.6116280166691174
  0.7472261852656004  0.8333412124158951  0.3892815193193530
  0.7472303098256426  0.8333396747837638  0.6116288528084506
  0.4972052879492068  0.6666604675557533  0.6116314288069742
  0.4972010881428333  0.6666589253608146  0.3892789702285872
  0.7472303223505993  0.1666603099453292  0.6116288550491208
  0.7472261944679672  0.1666587724527157  0.3892815198682708
  0.7472352928453991  0.5000000116316374  0.3892848153253293
  0.2472261981037484  0.8333412261518819  0.3892815181287080
  0.2472303224461116  0.8333396933715421  0.6116288586990573
  0.4972102679418691  1.0000000039716430  0.3892822627697205
  0.4972149678049532  1.0000000024347537  0.6116306083590710
  0.4972052766321206  0.3333395567480368  0.6116314277491200
  0.4972010829125499  0.3333410970356268  0.3892789756216961
  0.2472353014879882  0.5000000121950237  0.3892848149918020
  0.2472399178982166  0.5000000150726586  0.6116280132806369
  0.9972052725583114  0.6666604753873611  0.6116314306971794
  0.2472262033690373  0.1666587544017691  0.3892815306557497
  0.2472303226877767  0.1666602939720423  0.6116288477177143
  0.9972010787129395  0.6666589373734679  0.3892789657900179
  0.9972010831809711  0.3333410898992313  0.3892789664287299
  0.9972052783042189  0.3333395529505250  0.6116314274720180
  0.9972149678976201  0.9999999958745814  0.6116306034748209
  0.9972102674308971  0.9999999945135877  0.3892822693610600
 
  0.00000000E+00  0.00000000E+00  0.00000000E+00
  0.00000000E+00  0.00000000E+00  0.00000000E+00
  0.00000000E+00  0.00000000E+00  0.00000000E+00
  0.00000000E+00  0.00000000E+00  0.00000000E+00
  0.00000000E+00  0.00000000E+00  0.00000000E+00
  0.00000000E+00  0.00000000E+00  0.00000000E+00
  0.00000000E+00  0.00000000E+00  0.00000000E+00
  0.00000000E+00  0.00000000E+00  0.00000000E+00
  0.00000000E+00  0.00000000E+00  0.00000000E+00
  0.00000000E+00  0.00000000E+00  0.00000000E+00
  0.00000000E+00  0.00000000E+00  0.00000000E+00
  0.00000000E+00  0.00000000E+00  0.00000000E+00
  0.00000000E+00  0.00000000E+00  0.00000000E+00
  0.00000000E+00  0.00000000E+00  0.00000000E+00
  0.00000000E+00  0.00000000E+00  0.00000000E+00
  0.00000000E+00  0.00000000E+00  0.00000000E+00
  0.00000000E+00  0.00000000E+00  0.00000000E+00
  0.00000000E+00  0.00000000E+00  0.00000000E+00
  0.00000000E+00  0.00000000E+00  0.00000000E+00
  0.00000000E+00  0.00000000E+00  0.00000000E+00
  0.00000000E+00  0.00000000E+00  0.00000000E+00
  0.00000000E+00  0.00000000E+00  0.00000000E+00
  0.00000000E+00  0.00000000E+00  0.00000000E+00
  0.00000000E+00  0.00000000E+00  0.00000000E+00
  0.00000000E+00  0.00000000E+00  0.00000000E+00
  0.00000000E+00  0.00000000E+00  0.00000000E+00
  0.00000000E+00  0.00000000E+00  0.00000000E+00
  0.00000000E+00  0.00000000E+00  0.00000000E+00
  0.00000000E+00  0.00000000E+00  0.00000000E+00
  0.00000000E+00  0.00000000E+00  0.00000000E+00
  0.00000000E+00  0.00000000E+00  0.00000000E+00
  0.00000000E+00  0.00000000E+00  0.00000000E+00
  0.00000000E+00  0.00000000E+00  0.00000000E+00
  0.00000000E+00  0.00000000E+00  0.00000000E+00
  0.00000000E+00  0.00000000E+00  0.00000000E+00
  0.00000000E+00  0.00000000E+00  0.00000000E+00
