Mo Se 
 1.0000000000000000
     9.9599999999999991    5.7504086811286799    0.0000000000000000
    -4.9799999999999995    8.6256130216930202    0.0000000000000000
     0.0000000000000000    0.0000000000000000   15.0000000000000000
 Mo  Se 
  12  24
Direct
  0.9140901181257653  0.8333343160897786  0.5004551471056251
  0.6640901181257653  0.6666676494231119  0.5004551471056251
  0.9140901181257653  0.1666676494231120  0.5004551471056251
  0.9140901181257651  0.5000009827564453  0.5004551471056251
  0.1640901181257653  0.6666676494231119  0.5004551471056251
  0.1640901181257653  0.3333343160897786  0.5004551471056251
  0.1640901181257654  0.0000009827564454  0.5004551471056251
  0.6640901181257653  0.3333343160897786  0.5004551471056251
  0.6640901181257653  0.0000009827564454  0.5004551471056251
  0.4140901181257654  0.1666676494231120  0.5004551471056251
  0.4140901181257652  0.5000009827564452  0.5004551471056251
  0.4140901181257653  0.8333343160897786  0.5004551471056251
  0.7474281917865905  0.4999995118983016  0.6116904864013638
  0.7474175883362798  0.8333328386785857  0.3892201001509806
  0.7474281917865903  0.8333328452316349  0.6116904864013638
  0.4974281917865904  0.6666661785649682  0.6116904864013638
  0.4974175883362800  0.6666661720119192  0.3892201001509806
  0.7474281917865906  0.1666661785649685  0.6116904864013638
  0.7474175883362800  0.1666661720119192  0.3892201001509806
  0.7474175883362800  0.4999995053452526  0.3892201001509806
  0.2474175883362800  0.8333328386785857  0.3892201001509806
  0.2474281917865905  0.8333328452316352  0.6116904864013638
  0.4974175883362800 -0.0000004946547475  0.3892201001509806
  0.4974281917865905 -0.0000004881016981  0.6116904864013638
  0.4974281917865905  0.3333328452316351  0.6116904864013638
  0.4974175883362800  0.3333328386785858  0.3892201001509806
  0.2474175883362800  0.4999995053452526  0.3892201001509806
  0.2474281917865905  0.4999995118983018  0.6116904864013638
  0.9974281917865906  0.6666661785649683  0.6116904864013638
  0.2474175883362800  0.1666661720119192  0.3892201001509806
  0.2474281917865905  0.1666661785649686  0.6116904864013638
  0.9974175883362800  0.6666661720119191  0.3892201001509806
  0.9974175883362799  0.3333328386785857  0.3892201001509806
  0.9974281917865906  0.3333328452316351  0.6116904864013638
  0.9974281917865906 -0.0000004881016980  0.6116904864013638
  0.9974175883362800 -0.0000004946547475  0.3892201001509806
