dummy
80
Line-mode
reciprocal
 0.00000  0.50000  0.00000 ! M
 0.00000  0.00000  0.00000 ! G

 0.00000  0.00000  0.00000 ! G
 0.33333  0.33333  0.00000 ! K

 0.33333  0.33333  0.00000 ! K
-0.33333  0.66667  0.00000 ! K'

-0.33333  0.66667  0.00000 ! K'
 0.00000  0.00000  0.00000 ! G
