Mo Se                                   
   1.00000000000000     
     9.9599999999999991    5.7504086811286799    0.0000000000000000
    -4.9799999999999995    8.6256130216930202    0.0000000000000000
     0.0000000000000000    0.0000000000000000   15.0000000000000000
   Mo   Se
    12    24
Direct
  0.9119420761802444  0.8296376460700412  0.5010113716700598
  0.6617594528625403  0.6625176907234469  0.4988247463557433
  0.9111536966014397  0.1638801699295788  0.5006988560336756
  0.9153482737589824  0.4990902184078080  0.5004266216261429
  0.1647625851244988  0.6701207307951368  0.5000409549638086
  0.1638689427281411  0.3342613417326105  0.5010052361739621
  0.1647078975852704  0.0048298384016988  0.4998856435413219
  0.6662031094818943  0.3295235900476450  0.5007912110161628
  0.6616425218224110  0.0008103893181728  0.4990075499389598
  0.4110459999389995  0.1682823519243922  0.5011476144203364
  0.4196808280456408  0.5002965620959295  0.5011456222449008
  0.4152063845807443  0.8311566341408483  0.5007421987056968
  0.7464069670418767  0.4964372611675668  0.6094692707510114
  0.7451738457474614  0.8331424224942803  0.3877663847760666
  0.7425994467606558  0.8338409900862059  0.6127039398364736
  0.5020369033688432  0.6631080753198559  0.6127833529348298
  0.4991060382976524  0.6666406276644670  0.3862167320094029
  0.7455588394804524  0.1647339866255555  0.6130922608938089
  0.7483867863348959  0.1639314345770770  0.3880382953815613
  0.7497618725724329  0.4983875787570039  0.3907459547807509
  0.2455850532327130  0.8376594300135161  0.3902420622292117
  0.2478027561212170  0.8375678944462468  0.6112376874805837
  0.4938880466818911  0.0031032762973773  0.3890377507794440
  0.4932279289228784  0.0007811041464605  0.6090447826584942
  0.5014089399575490  0.3343574699249916  0.6143768965210816
  0.4999192580218481  0.3307846625610070  0.3886607145343794
  0.2506034622143461  0.5010328664777702  0.3900318435217888
  0.2517703175742190  0.5030713565546309  0.6097762565557698
  0.9993927718713348  0.6646971871719759  0.6122899999751876
  0.2463922375626157  0.1729957614346659  0.3883094955877280
  0.2452764227885371  0.1734794166411263  0.6118141680545379
  0.0006268693945541  0.6667899638938590  0.3901566797374376
  0.9977842230663765  0.3307630943519018  0.3906991560447344
  0.9969910464744964  0.3321603983567988  0.6132942596306005
  0.9959248972242790  0.9969435169480069  0.6117512623544631
  0.9946624842784830  0.0003883113709172  0.3902798434408782
 
  0.66552081E-03 -0.11358388E-04 -0.53178839E-03
  0.38880579E-03 -0.15510842E-03 -0.41323079E-04
  0.12702346E-03  0.39034970E-03 -0.11389899E-02
  0.35270940E-03 -0.20654731E-03 -0.14956834E-03
 -0.52496995E-03  0.30523992E-03 -0.21217552E-03
  0.70302940E-03  0.10046233E-02  0.15215509E-03
  0.35633699E-03  0.52614575E-03 -0.29585580E-03
 -0.31534727E-03 -0.12253744E-02  0.13053084E-02
  0.23986593E-02 -0.38759439E-03  0.42716095E-03
  0.66787813E-03  0.28298579E-03 -0.19966957E-04
  0.23599638E-03  0.92388305E-03  0.33959026E-03
 -0.60518487E-03  0.24181042E-03 -0.17001547E-03
  0.10581573E-02 -0.60590768E-03  0.72869429E-04
 -0.11338461E-03 -0.13327672E-02  0.34043586E-03
  0.10886299E-02 -0.29584532E-03  0.60823213E-03
 -0.25318674E-03  0.79057490E-03  0.29423340E-03
 -0.77268831E-03 -0.12278190E-02 -0.10547121E-02
  0.75260830E-04 -0.12290445E-02  0.10444888E-02
 -0.66946156E-03 -0.15533579E-03 -0.22584574E-03
 -0.16646879E-03 -0.13675017E-02 -0.31193328E-03
 -0.12640007E-02  0.39374413E-03 -0.63326557E-03
 -0.53082365E-04  0.84578620E-03 -0.36246134E-03
  0.71703891E-03  0.80795840E-03  0.31943442E-03
 -0.19794184E-03 -0.19976844E-04  0.15967362E-02
 -0.18186665E-02 -0.21214529E-03 -0.33557292E-03
 -0.16914578E-03  0.11955227E-02  0.45278098E-03
 -0.15763733E-03 -0.34479943E-03 -0.28495507E-03
 -0.12956271E-02  0.45329631E-03 -0.34415913E-04
 -0.10292033E-02 -0.53009957E-03  0.40389178E-03
  0.88620340E-03 -0.79665672E-03  0.15713091E-03
 -0.11925191E-02  0.58474991E-03  0.80533989E-03
  0.29036589E-03  0.21481773E-03 -0.10845016E-02
 -0.14046368E-03 -0.37322732E-03 -0.60673938E-04
 -0.11557481E-04  0.28032193E-04 -0.33710496E-03
  0.28171007E-03  0.89408794E-03 -0.75068980E-03
 -0.49984019E-03  0.23027708E-03 -0.21183171E-03
 
           1
   1.00000000000000     
  0.10000000E+01  0.00000000E+00  0.00000000E+00  0.00000000E+00
  0.91199170E+00  0.82960325E+00  0.50097592E+00
  0.66178199E+00  0.66248469E+00  0.49882199E+00
  0.91118023E+00  0.16390773E+00  0.50062292E+00
  0.91536585E+00  0.49905455E+00  0.50041665E+00
  0.16473632E+00  0.67017363E+00  0.50002681E+00
  0.16396556E+00  0.33431340E+00  0.50101538E+00
  0.16475760E+00  0.48576986E-02  0.49986592E+00
  0.66612609E+00  0.32943287E+00  0.50087823E+00
  0.66180629E+00  0.65627323E-03  0.49903603E+00
  0.41110859E+00  0.16827343E+00  0.50114628E+00
  0.41973876E+00  0.50036505E+00  0.50116826E+00
  0.41517133E+00  0.83120804E+00  0.50073086E+00
  0.74646031E+00  0.49633146E+00  0.60947413E+00
  0.74510737E+00  0.83303223E+00  0.38778908E+00
  0.74266856E+00  0.83376062E+00  0.61274449E+00
  0.50205221E+00  0.66318953E+00  0.61280297E+00
  0.49899447E+00  0.66657266E+00  0.38614642E+00
  0.74551107E+00  0.16462334E+00  0.61316189E+00
  0.74832962E+00  0.16395154E+00  0.38802324E+00
  0.74968988E+00  0.49827703E+00  0.39072516E+00
  0.24550699E+00  0.83775712E+00  0.39019984E+00
  0.24783553E+00  0.83764410E+00  0.61121352E+00
  0.49397717E+00  0.31375326E-02  0.38905905E+00
  0.49321216E+00  0.78930399E-03  0.60915123E+00
  0.50126277E+00  0.33443032E+00  0.61435452E+00
  0.49995850E+00  0.33089710E+00  0.38869090E+00
  0.25057660E+00  0.50101080E+00  0.39001285E+00
  0.25169246E+00  0.50317581E+00  0.60977396E+00
  0.99929223E+00  0.66470276E+00  0.61231693E+00
  0.24642433E+00  0.17288200E+00  0.38831997E+00
  0.24521205E+00  0.17359013E+00  0.61186786E+00
  0.65807353E-03  0.66679407E+00  0.39008438E+00
  0.99775742E+00  0.33073769E+00  0.39069511E+00
  0.99699139E+00  0.33216342E+00  0.61327179E+00
  0.99598498E+00  0.99700712E+00  0.61170122E+00
  0.99463486E+00  0.43342642E-03  0.39026572E+00
  0.48877235E-04 -0.35880651E-04 -0.35557851E-04
  0.20008398E-04 -0.36975145E-04 -0.35372707E-05
  0.24903376E-04  0.26317104E-04 -0.77342499E-04
  0.16371608E-04 -0.35694291E-04 -0.10786779E-04
 -0.27425595E-04  0.53769064E-04 -0.15007717E-04
  0.96266365E-04  0.50502806E-04  0.10319848E-04
  0.50384606E-04  0.28099820E-04 -0.20550211E-04
 -0.76473567E-04 -0.90545710E-04  0.87904211E-04
  0.16279883E-03 -0.15373040E-03  0.27584703E-04
  0.61013756E-04 -0.10661917E-04 -0.80249960E-06
  0.58470435E-04  0.68949195E-04  0.24261069E-04
 -0.35002673E-04  0.51313377E-04 -0.10143255E-04
  0.52342619E-04 -0.10716227E-03  0.37409946E-05
 -0.66575126E-04 -0.10920367E-03  0.21540316E-04
  0.68521059E-04 -0.78963874E-04  0.42523879E-04
  0.17481846E-04  0.79723719E-04  0.19732950E-04
 -0.11008249E-03 -0.67299252E-04 -0.71403967E-04
 -0.47859584E-04 -0.10959485E-03  0.70130310E-04
 -0.56134364E-04  0.19529983E-04 -0.14947977E-04
 -0.71142113E-04 -0.10952815E-03 -0.19318790E-04
 -0.79277548E-04  0.98411360E-04 -0.41591247E-04
  0.33025528E-04  0.76909188E-04 -0.24144389E-04
  0.89214967E-04  0.35637870E-04  0.21094870E-04
 -0.16980408E-04  0.84470651E-05  0.10490654E-03
 -0.14457333E-03  0.74303609E-04 -0.20856768E-04
  0.39939638E-04  0.11171187E-03  0.29195550E-04
 -0.26381056E-04 -0.22485363E-04 -0.19494213E-04
 -0.76494632E-04  0.10470002E-03 -0.28612116E-05
 -0.99367638E-04  0.50606248E-05  0.27208921E-04
  0.32285317E-04 -0.11232010E-03  0.10465110E-04
 -0.64644343E-04  0.11304426E-03  0.52696283E-04
  0.33330968E-04  0.44815810E-05 -0.71481226E-04
 -0.25845490E-04 -0.25756147E-04 -0.35890216E-05
  0.10425420E-05  0.32591889E-05 -0.21341632E-04
  0.60062647E-04  0.63114903E-04 -0.49439188E-04
 -0.28141490E-04  0.46694448E-04 -0.14020240E-04
  0.00000000E+00  0.00000000E+00  0.00000000E+00
  0.00000000E+00  0.00000000E+00  0.00000000E+00
  0.00000000E+00  0.00000000E+00  0.00000000E+00
  0.00000000E+00  0.00000000E+00  0.00000000E+00
  0.00000000E+00  0.00000000E+00  0.00000000E+00
  0.00000000E+00  0.00000000E+00  0.00000000E+00
  0.00000000E+00  0.00000000E+00  0.00000000E+00
  0.00000000E+00  0.00000000E+00  0.00000000E+00
  0.00000000E+00  0.00000000E+00  0.00000000E+00
  0.00000000E+00  0.00000000E+00  0.00000000E+00
  0.00000000E+00  0.00000000E+00  0.00000000E+00
  0.00000000E+00  0.00000000E+00  0.00000000E+00
  0.00000000E+00  0.00000000E+00  0.00000000E+00
  0.00000000E+00  0.00000000E+00  0.00000000E+00
  0.00000000E+00  0.00000000E+00  0.00000000E+00
  0.00000000E+00  0.00000000E+00  0.00000000E+00
  0.00000000E+00  0.00000000E+00  0.00000000E+00
  0.00000000E+00  0.00000000E+00  0.00000000E+00
  0.00000000E+00  0.00000000E+00  0.00000000E+00
  0.00000000E+00  0.00000000E+00  0.00000000E+00
  0.00000000E+00  0.00000000E+00  0.00000000E+00
  0.00000000E+00  0.00000000E+00  0.00000000E+00
  0.00000000E+00  0.00000000E+00  0.00000000E+00
  0.00000000E+00  0.00000000E+00  0.00000000E+00
  0.00000000E+00  0.00000000E+00  0.00000000E+00
  0.00000000E+00  0.00000000E+00  0.00000000E+00
  0.00000000E+00  0.00000000E+00  0.00000000E+00
  0.00000000E+00  0.00000000E+00  0.00000000E+00
  0.00000000E+00  0.00000000E+00  0.00000000E+00
  0.00000000E+00  0.00000000E+00  0.00000000E+00
  0.00000000E+00  0.00000000E+00  0.00000000E+00
  0.00000000E+00  0.00000000E+00  0.00000000E+00
  0.00000000E+00  0.00000000E+00  0.00000000E+00
  0.00000000E+00  0.00000000E+00  0.00000000E+00
  0.00000000E+00  0.00000000E+00  0.00000000E+00
  0.00000000E+00  0.00000000E+00  0.00000000E+00
