Mo  S                                   
   1.00000000000000     
     3.3199999999999998    0.0000000000000000    0.0000000000000000
    -1.6599999999999999    2.8752043405643399    0.0000000000000000
     0.0000000000000000    0.0000000000000000   15.0000000000000000
   Mo   Se
     1     2
Direct
  0.6563604725030615  0.3281831845208671  0.5004551471056251
 -0.0103296466548799 -0.0051663072916822  0.3892201001509806
 -0.0102872328536379 -0.0051450807319131  0.6116904864013640
 
  0.00000000E+00  0.00000000E+00  0.00000000E+00
  0.00000000E+00  0.00000000E+00  0.00000000E+00
  0.00000000E+00  0.00000000E+00  0.00000000E+00
