generated by phonopy
   1.0
    13.2799999999999994    0.0000000000000000    0.0000000000000000
    -6.6399999999999997   11.5008173622573597    0.0000000000000000
     0.0000000000000000    0.0000000000000000   15.0000000000000000
Mo Se
  16   32
Direct
  0.1640901181257654  0.0820457961302168  0.5004551471056251
  0.4140901181257654  0.0820457961302168  0.5004551471056251
  0.6640901181257653  0.0820457961302168  0.5004551471056251
  0.9140901181257653  0.0820457961302168  0.5004551471056251
  0.1640901181257654  0.3320457961302168  0.5004551471056251
  0.4140901181257653  0.3320457961302168  0.5004551471056251
  0.6640901181257653  0.3320457961302168  0.5004551471056251
  0.9140901181257653  0.3320457961302168  0.5004551471056251
  0.1640901181257654  0.5820457961302168  0.5004551471056251
  0.4140901181257654  0.5820457961302168  0.5004551471056251
  0.6640901181257653  0.5820457961302168  0.5004551471056251
  0.9140901181257653  0.5820457961302168  0.5004551471056251
  0.1640901181257654  0.8320457961302169  0.5004551471056251
  0.4140901181257654  0.8320457961302169  0.5004551471056251
  0.6640901181257653  0.8320457961302169  0.5004551471056251
  0.9140901181257655  0.8320457961302169  0.5004551471056251
  0.9974175883362800  0.9987084231770794  0.3892201001509806
  0.2474175883362801  0.9987084231770794  0.3892201001509806
  0.4974175883362801  0.9987084231770794  0.3892201001509806
  0.7474175883362800  0.9987084231770794  0.3892201001509806
  0.9974175883362801  0.2487084231770794  0.3892201001509806
  0.2474175883362800  0.2487084231770794  0.3892201001509806
  0.4974175883362800  0.2487084231770794  0.3892201001509806
  0.7474175883362800  0.2487084231770794  0.3892201001509806
  0.9974175883362800  0.4987084231770795  0.3892201001509806
  0.2474175883362800  0.4987084231770795  0.3892201001509806
  0.4974175883362800  0.4987084231770795  0.3892201001509806
  0.7474175883362800  0.4987084231770795  0.3892201001509806
  0.9974175883362801  0.7487084231770795  0.3892201001509806
  0.2474175883362800  0.7487084231770795  0.3892201001509806
  0.4974175883362801  0.7487084231770795  0.3892201001509806
  0.7474175883362800  0.7487084231770795  0.3892201001509806
  0.9966751797383978  0.9987137298170218  0.6116904864013639
  0.2474281917865906  0.9987137298170218  0.6116904864013639
  0.4974281917865906  0.9987137298170218  0.6116904864013639
  0.7474281917865905  0.9987137298170218  0.6116904864013639
  0.9974281917865905  0.2487137298170218  0.6116904864013639
  0.2474281917865906  0.2487137298170218  0.6116904864013639
  0.4974281917865906  0.2487137298170218  0.6116904864013639
  0.7474281917865905  0.2487137298170218  0.6116904864013639
  0.9974281917865905  0.4987137298170217  0.6116904864013639
  0.2474281917865906  0.4987137298170217  0.6116904864013639
  0.4974281917865906  0.4987137298170217  0.6116904864013639
  0.7474281917865905  0.4987137298170217  0.6116904864013639
  0.9974281917865906  0.7487137298170219  0.6116904864013639
  0.2474281917865906  0.7487137298170219  0.6116904864013639
  0.4974281917865906  0.7487137298170219  0.6116904864013639
  0.7474281917865905  0.7487137298170219  0.6116904864013639
